
  32    4
  10   10   10   10

   0   0   0   0   0   1 2 
  10  10  10  10  10   1 3 
   8  10  10  10  10   1 4 
   5  10  10  10  10   1 5 
   5  10  10  10  10   1 6 
   7  10  10  10  10   1 7 
   2  10  10  10  10   1 8 
   9  10  10  10  10   1 9 
   2  10  10  10  10   1 10 
   2  10  10  10  10   2 14 11 
   4  10  10  10  10   2 13 12 
  10  10  10  10  10   2 16 15 
   1  10  10  10  10   2 16 15 
   2  10  10  10  10   2 16 15 
   8  10  10  10  10   1 17 
   8  10  10  10  10   1 17 
   9  10  10  10  10   1 18 
   6  10  10  10  10   1 19 
   9  10  10  10  10   1 20 
   4  10  10  10  10   2 22 21 
   8  10  10  10  10   1 23 
   9  10  10  10  10   1 23 
   8  10  10  10  10   1 24 
   3  10  10  10  10   2 26 25 
   4  10  10  10  10   1 27 
   9  10  10  10  10   1 27 
   8  10  10  10  10   2 31 28 
   6  10  10  10  10   1 29 
   1  10  10  10  10   1 30 
   1  10  10  10  10   1 32
   3  10  10  10  10   1 32
   0   0   0   0   0   0 
